npieces = 10;	
nplayers = 5;	
duration = [6, 9, 7, 4, 4, 7, 10, 4, 9, 4];
rehearsal = [[1, 0, 0, 1, 1, 0, 0, 0, 0, 1], [1, 1, 1, 1, 1, 0, 0, 1, 1, 0], [1, 1, 0, 0, 0, 0, 1, 0, 0, 1], [1, 1, 1, 0, 1, 0, 1, 1, 0, 0], [1, 0, 0, 0, 1, 1, 1, 0, 1, 1]];